c Reduced graph for huck_0 generated by Cyril Grelier
p edge 61 274
e 1 2
e 1 3
e 1 4
e 1 5
e 1 6
e 1 7
e 1 8
e 1 9
e 1 10
e 1 11
e 1 12
e 1 13
e 1 14
e 1 15
e 1 16
e 1 17
e 1 18
e 1 20
e 1 21
e 1 22
e 1 23
e 1 24
e 1 25
e 1 26
e 1 27
e 1 28
e 1 29
e 1 30
e 1 31
e 1 32
e 1 33
e 1 34
e 1 35
e 1 36
e 1 37
e 1 38
e 1 39
e 1 40
e 1 44
e 1 45
e 1 46
e 1 47
e 1 50
e 1 51
e 1 52
e 1 54
e 1 59
e 2 3
e 2 4
e 2 5
e 2 6
e 2 7
e 2 8
e 2 10
e 2 16
e 2 19
e 2 23
e 2 24
e 2 25
e 2 26
e 2 27
e 2 29
e 2 30
e 2 31
e 2 32
e 2 44
e 2 45
e 2 53
e 2 55
e 3 4
e 3 8
e 3 10
e 3 16
e 3 19
e 3 23
e 3 24
e 3 25
e 3 26
e 3 27
e 3 29
e 3 30
e 3 31
e 3 32
e 3 44
e 3 48
e 3 49
e 4 8
e 4 10
e 4 16
e 4 19
e 4 23
e 4 24
e 4 25
e 4 26
e 4 27
e 4 29
e 4 30
e 4 31
e 4 32
e 4 44
e 4 48
e 4 49
e 5 6
e 5 7
e 5 9
e 5 10
e 5 11
e 5 12
e 5 13
e 5 15
e 5 17
e 5 18
e 5 20
e 5 22
e 5 45
e 5 46
e 5 47
e 6 7
e 6 9
e 6 10
e 6 11
e 6 12
e 6 13
e 6 15
e 6 17
e 6 18
e 6 20
e 6 22
e 6 45
e 6 46
e 6 47
e 7 9
e 7 10
e 7 14
e 7 21
e 7 28
e 7 41
e 7 42
e 7 43
e 7 45
e 7 46
e 7 47
e 7 50
e 7 51
e 8 16
e 8 19
e 8 24
e 8 26
e 8 27
e 8 29
e 8 30
e 8 31
e 8 32
e 9 10
e 9 14
e 9 21
e 9 28
e 9 41
e 9 42
e 9 43
e 10 14
e 10 45
e 11 12
e 11 13
e 11 15
e 11 17
e 11 18
e 11 20
e 11 22
e 12 13
e 12 15
e 12 17
e 12 18
e 12 20
e 12 22
e 13 15
e 13 17
e 13 18
e 13 20
e 13 22
e 14 21
e 14 28
e 14 41
e 14 42
e 14 43
e 14 52
e 15 17
e 15 18
e 15 20
e 15 22
e 16 23
e 16 24
e 16 27
e 16 30
e 16 32
e 17 18
e 17 20
e 17 22
e 18 20
e 18 22
e 19 25
e 19 26
e 19 29
e 19 31
e 19 48
e 19 49
e 20 22
e 21 28
e 21 41
e 21 42
e 21 43
e 21 50
e 21 51
e 23 25
e 23 26
e 23 29
e 23 31
e 23 44
e 24 27
e 24 30
e 24 32
e 25 44
e 25 48
e 25 49
e 26 29
e 26 31
e 27 30
e 27 32
e 28 41
e 28 42
e 28 43
e 28 52
e 29 31
e 30 32
e 33 34
e 33 35
e 33 36
e 33 37
e 33 38
e 33 39
e 33 40
e 34 35
e 34 36
e 34 37
e 34 38
e 34 39
e 34 40
e 35 36
e 35 37
e 35 38
e 35 39
e 35 40
e 36 37
e 36 38
e 36 39
e 36 40
e 37 38
e 37 39
e 37 40
e 38 39
e 38 40
e 39 40
e 41 42
e 41 43
e 42 43
e 46 47
e 48 49
e 50 51
e 53 55
e 54 59
e 56 57
e 56 58
e 57 58
e 60 61
